c FILE /home/rafael/Documents/HappySet/MIHS/inputs/happygen/output/graph_scale_free_k10_p0.5_v50_20241127_082521.txt
c SOURCE This is a scale-free graph formed for the happy graph colouring problem.
c DESCRIPTION It was generated using the problem generator of Rhyd Lewis
c
c GRAPH STATS
c Seed                             = 1282584696
c Number of Nodes                  = 50
c Number of colours k              = 10
c Number of pre-assignments        = 25
c Number of links per new node     = 5
c Density                          = 0.191837
c 
c The degrees of nodes 1 to 50, respectively, are as follows 
c [28, 25, 23, 23, 22, 19, 18, 16, 13, 12, 11, 11, 10, 10, 10, 10, 10, 8, 8, 8, 7, 7, 7, 7, 7, 7, 
c  7, 7, 7, 7, 7, 6, 6, 6, 5, 5, 5, 5, 5, 5, 5, 5, 5, 5, 5, 5, 5, 5, 5, 5] 
c  
p edge 50 235 10
e 1 2
e 1 3
e 1 4
e 1 5
e 1 6
e 1 7
e 1 8
e 1 9
e 1 10
e 1 11
e 1 12
e 1 14
e 1 17
e 1 18
e 1 20
e 1 23
e 1 24
e 1 25
e 1 29
e 1 30
e 1 31
e 1 35
e 1 36
e 1 39
e 1 40
e 1 41
e 1 42
e 1 46
e 2 3
e 2 4
e 2 5
e 2 7
e 2 8
e 2 10
e 2 13
e 2 14
e 2 18
e 2 19
e 2 21
e 2 22
e 2 25
e 2 26
e 2 28
e 2 29
e 2 33
e 2 34
e 2 43
e 2 44
e 2 45
e 2 46
e 2 48
e 2 50
e 3 4
e 3 5
e 3 6
e 3 7
e 3 8
e 3 9
e 3 14
e 3 15
e 3 16
e 3 17
e 3 19
e 3 20
e 3 21
e 3 28
e 3 33
e 3 35
e 3 36
e 3 38
e 3 40
e 3 45
e 3 50
e 4 5
e 4 6
e 4 8
e 4 9
e 4 10
e 4 12
e 4 13
e 4 14
e 4 16
e 4 22
e 4 23
e 4 26
e 4 32
e 4 33
e 4 34
e 4 36
e 4 39
e 4 42
e 4 43
e 4 46
e 5 6
e 5 7
e 5 8
e 5 10
e 5 12
e 5 13
e 5 15
e 5 20
e 5 21
e 5 26
e 5 27
e 5 34
e 5 35
e 5 37
e 5 39
e 5 42
e 5 44
e 5 50
e 6 7
e 6 8
e 6 9
e 6 12
e 6 13
e 6 15
e 6 17
e 6 19
e 6 22
e 6 23
e 6 24
e 6 29
e 6 37
e 6 40
e 6 49
e 7 11
e 7 16
e 7 17
e 7 21
e 7 23
e 7 24
e 7 31
e 7 32
e 7 36
e 7 37
e 7 41
e 7 46
e 7 49
e 8 9
e 8 10
e 8 11
e 8 12
e 8 13
e 8 27
e 8 32
e 8 41
e 8 44
e 8 47
e 9 11
e 9 14
e 9 18
e 9 21
e 9 22
e 9 23
e 9 25
e 9 34
e 10 18
e 10 20
e 10 22
e 10 28
e 10 45
e 10 47
e 10 48
e 11 14
e 11 15
e 11 16
e 11 31
e 11 34
e 11 38
e 11 47
e 12 16
e 12 18
e 12 28
e 12 33
e 12 41
e 12 43
e 13 25
e 13 27
e 13 29
e 13 35
e 13 38
e 14 15
e 14 30
e 14 35
e 14 37
e 15 19
e 15 32
e 15 41
e 15 43
e 15 45
e 16 27
e 16 30
e 16 32
e 16 39
e 16 48
e 17 19
e 17 26
e 17 36
e 17 38
e 17 39
e 17 47
e 18 19
e 18 24
e 18 40
e 19 27
e 19 48
e 20 21
e 20 40
e 20 49
e 20 50
e 21 42
e 22 24
e 22 25
e 23 30
e 23 44
e 24 28
e 24 48
e 25 26
e 25 29
e 26 31
e 26 33
e 27 37
e 27 44
e 28 30
e 28 38
e 29 43
e 29 49
e 30 31
e 30 50
e 31 42
e 31 47
e 32 45
e 33 46
e 34 49
n 13 2
n 14 10
n 18 3
n 21 9
n 22 2
n 23 2
n 25 2
n 27 2
n 28 9
n 31 4
n 32 9
n 33 8
n 34 5
n 36 1
n 39 7
n 40 3
n 41 10
n 43 8
n 44 2
n 45 9
n 46 8
n 47 4
n 48 9
n 49 5
n 50 6
